benchmarks/minizinc/A073_k40.dzn
k = 40;
b = 20;
AtomicConstraints =  [|
	14, 1|
	14, 12|
	14, 16|
	15, 1|
	15, 12|
	15, 16|
	15, 27|
	17, 12|
	17, 16|
	17, 27|
	17, 36|
	18, 16|
	18, 27|
	18, 36|
	18, 37|
	19, 27|
	19, 36|
	19, 37|
	19, 38|
	20, 36|
	20, 37|
	20, 38|
	20, 39|
	21, 37|
	21, 38|
	21, 39|
	21, 40|
	22, 2|
	22, 38|
	22, 39|
	22, 40|
	23, 2|
	23, 3|
	23, 39|
	23, 40|
	24, 2|
	24, 3|
	24, 4|
	24, 40|
	25, 2|
	25, 3|
	25, 4|
	25, 5|
	26, 3|
	26, 4|
	26, 5|
	26, 6|
	28, 4|
	28, 5|
	28, 6|
	28, 7|
	29, 5|
	29, 6|
	29, 7|
	29, 8|
	30, 6|
	30, 7|
	30, 8|
	30, 9|
	31, 7|
	31, 8|
	31, 9|
	31, 10|
	32, 8|
	32, 9|
	32, 10|
	32, 11|
	33, 9|
	33, 10|
	33, 11|
	33, 13|
	34, 10|
	34, 11|
	34, 13|
	35, 11|
	35, 13|];
DisjunctiveConstraints =  [|
2, 40, 2, 3|
	3, 2, 3, 4|
	4, 3, 4, 5|
	5, 4, 5, 6|
	6, 5, 6, 7|
	7, 6, 7, 8|
	8, 7, 8, 9|
	9, 8, 9, 10|
	10, 9, 10, 11|
	11, 10, 11, 13|
	15, 14, 15, 17|
	12, 1, 12, 16|
	17, 15, 17, 18|
	18, 17, 18, 19|
	19, 18, 19, 20|
	20, 19, 20, 21|
	21, 20, 21, 22|
	22, 21, 22, 23|
	23, 22, 23, 24|
	24, 23, 24, 25|
	25, 24, 25, 26|
	26, 25, 26, 28|
	16, 12, 16, 27|
	28, 26, 28, 29|
	29, 28, 29, 30|
	30, 29, 30, 31|
	31, 30, 31, 32|
	32, 31, 32, 33|
	33, 32, 33, 34|
	34, 33, 34, 35|
	27, 16, 27, 36|
	36, 27, 36, 37|
	37, 36, 37, 38|
	38, 37, 38, 39|
	39, 38, 39, 40|
	40, 39, 40, 2|];
SoftAtomicConstraints =  [|
40, 2|
2, 3|
3, 4|
4, 5|
5, 6|
6, 7|
7, 8|
8, 9|
9, 10|
10, 11|
1, 12|
11, 13|
14, 15|
12, 16|
15, 17|
17, 18|
18, 19|
19, 20|
20, 21|
21, 22|
22, 23|
23, 24|
24, 25|
25, 26|
16, 27|
26, 28|
28, 29|
29, 30|
30, 31|
31, 32|
32, 33|
33, 34|
34, 35|
27, 36|
36, 37|
37, 38|
38, 39|
39, 40|];
DirectSuccessors =  [];